data;

param num_top:=6;

#nodes and edges of the physical network
param n := 10;

set E := (1,2) (1,3) (1,7) (2,4) (2,7) (3,5) (4,8) (5,6) (5,7) (6,7) (6,9) (7,8) (7,9) (8,10) (9,10) ;

#nodes and edges of the virtual networks
set Nl[1] := 6 7 8 2 5 ;
set Nl[2] := 9 2 7 8 1 ;
set Nl[3] := 6 10 2 7 4 ;
set Nl[4] := 10 1 4 8 6 ;
set Nl[5] := 7 3 5 8 6 ;
set Nl[6] := 7 4 9 2 1 ;

set El[1] := (6,7) (7,8) (2,8) (2,5) (5,6) (5,8) (5,7) (2,6) (2,7) (6,8) ;
set El[2] := (2,9) (2,7) (7,8) (1,8) (1,9) (7,9) (1,2) (2,8) (1,7) (8,9) ;
set El[3] := (6,10) (2,10) (2,7) (4,7) (4,6) (7,10) (2,6) (2,4) (6,7) (4,10) ;
set El[4] := (1,10) (1,4) (4,8) (6,8) (6,10) (4,10) (1,8) (1,6) (8,10) (4,6) ;
set El[5] := (3,7) (3,5) (5,8) (6,8) (6,7) (3,6) (5,7) (3,8) (5,6) (7,8) ;
set El[6] := (4,7) (4,9) (2,9) (1,2) (1,7) (2,7) (1,4) (7,9) (1,9) (2,4) ;
